; Options: -q --produce-models --incremental --print-success --lang smt2.6 --arrays-exp
(set-logic ALL)

(declare-fun start!2977 () Bool)

(assert start!2977)

(declare-fun e!9033 () Bool)

(declare-fun j!78 () (_ BitVec 32))

(declare-fun jz!49 () (_ BitVec 32))

(declare-datatypes ((array!1272 0))(
  ( (array!1273 (arr!555 (Array (_ BitVec 32) (_ BitVec 32))) (size!555 (_ BitVec 32))) )
))
(declare-fun iq!146 () array!1272)

(declare-fun b!16610 () Bool)

(assert (=> b!16610 (= e!9033 (and (bvsgt j!78 #b00000000000000000000000000000000) (let ((ix!183 (bvsub jz!49 j!78))) (or (bvslt ix!183 #b00000000000000000000000000000000) (bvsge ix!183 (size!555 iq!146))))))))

(declare-fun res!13049 () Bool)

(assert (=> start!2977 (=> (not res!13049) (not e!9033))))

(assert (=> start!2977 (= res!13049 (and (bvsle #b00000000000000000000000000000010 jz!49) (bvslt jz!49 #b00000000000000000000000000010011)))))

(assert (=> start!2977 e!9033))

(assert (=> start!2977 true))

(declare-fun array_inv!503 (array!1272) Bool)

(assert (=> start!2977 (array_inv!503 iq!146)))

(declare-datatypes ((array!1274 0))(
  ( (array!1275 (arr!556 (Array (_ BitVec 32) (_ FloatingPoint 11 53))) (size!556 (_ BitVec 32))) )
))
(declare-fun q!79 () array!1274)

(declare-fun array_inv!504 (array!1274) Bool)

(assert (=> start!2977 (array_inv!504 q!79)))

(declare-fun b!16607 () Bool)

(declare-fun res!13048 () Bool)

(assert (=> b!16607 (=> (not res!13048) (not e!9033))))

(declare-fun qInv!0 (array!1274) Bool)

(assert (=> b!16607 (= res!13048 (qInv!0 q!79))))

(declare-fun b!16609 () Bool)

(declare-fun res!13050 () Bool)

(assert (=> b!16609 (=> (not res!13050) (not e!9033))))

(declare-fun iqInv!0 (array!1272) Bool)

(assert (=> b!16609 (= res!13050 (iqInv!0 iq!146))))

(declare-fun b!16608 () Bool)

(declare-fun res!13047 () Bool)

(assert (=> b!16608 (=> (not res!13047) (not e!9033))))

(declare-fun z!100 () (_ FloatingPoint 11 53))

(assert (=> b!16608 (= res!13047 (and (bvsle #b00000000000000000000000000000000 j!78) (bvsle j!78 jz!49) (fp.leq (fp #b0 #b00000000000 #b0000000000000000000000000000000000000000000000000000) z!100) (fp.leq z!100 (fp #b0 #b10000110001 #b0100000000000000000000010011111111111111111111111100))))))

(assert (= (and start!2977 res!13049) b!16607))

(assert (= (and b!16607 res!13048) b!16608))

(assert (= (and b!16608 res!13047) b!16609))

(assert (= (and b!16609 res!13050) b!16610))

(declare-fun m!26679 () Bool)

(assert (=> start!2977 m!26679))

(declare-fun m!26681 () Bool)

(assert (=> start!2977 m!26681))

(declare-fun m!26683 () Bool)

(assert (=> b!16607 m!26683))

(declare-fun m!26685 () Bool)

(assert (=> b!16609 m!26685))

(push 1)

(assert (not b!16607))

(assert (not b!16609))

(assert (not start!2977))

(check-sat)

(pop 1)

(push 1)

(check-sat)

(get-model)

(pop 1)

(declare-fun d!8301 () Bool)

(declare-fun res!13053 () Bool)

(declare-fun e!9037 () Bool)

(assert (=> d!8301 (=> (not res!13053) (not e!9037))))

(assert (=> d!8301 (= res!13053 (= (size!556 q!79) #b00000000000000000000000000010100))))

(assert (=> d!8301 (= (qInv!0 q!79) e!9037)))

(declare-fun b!16613 () Bool)

(declare-fun lambda!753 () Int)

(declare-fun all20!0 (array!1274 Int) Bool)

(assert (=> b!16613 (= e!9037 (all20!0 q!79 lambda!753))))

(assert (= (and d!8301 res!13053) b!16613))

(declare-fun m!26687 () Bool)

(assert (=> b!16613 m!26687))

(assert (=> b!16607 d!8301))

(declare-fun d!8303 () Bool)

(declare-fun res!13056 () Bool)

(declare-fun e!9040 () Bool)

(assert (=> d!8303 (=> (not res!13056) (not e!9040))))

(assert (=> d!8303 (= res!13056 (= (size!555 iq!146) #b00000000000000000000000000010100))))

(assert (=> d!8303 (= (iqInv!0 iq!146) e!9040)))

(declare-fun b!16616 () Bool)

(declare-fun lambda!756 () Int)

(declare-fun all20Int!0 (array!1272 Int) Bool)

(assert (=> b!16616 (= e!9040 (all20Int!0 iq!146 lambda!756))))

(assert (= (and d!8303 res!13056) b!16616))

(declare-fun m!26689 () Bool)

(assert (=> b!16616 m!26689))

(assert (=> b!16609 d!8303))

(declare-fun d!8305 () Bool)

(assert (=> d!8305 (= (array_inv!503 iq!146) (bvsge (size!555 iq!146) #b00000000000000000000000000000000))))

(assert (=> start!2977 d!8305))

(declare-fun d!8307 () Bool)

(assert (=> d!8307 (= (array_inv!504 q!79) (bvsge (size!556 q!79) #b00000000000000000000000000000000))))

(assert (=> start!2977 d!8307))

(push 1)

(assert (not b!16616))

(assert (not b!16613))

(check-sat)

(pop 1)

(push 1)

(check-sat)

(pop 1)

